cases/matpower/case5_ext.m
ipopt
QCRM
[warn | PowerModels]: active branch 8 is connected to inactive bus 11
[warn | PowerModels]: reversing the orientation of branch 6 (4, 3) to be consistent with other parallel branches
[warn | PowerModels]: the voltage setpoint on generator 4 does not match the value at bus 4
[warn | PowerModels]: the voltage setpoint on generator 1 does not match the value at bus 1
[warn | PowerModels]: the voltage setpoint on generator 5 does not match the value at bus 10
[warn | PowerModels]: the voltage setpoint on generator 2 does not match the value at bus 1
[warn | PowerModels]: the voltage setpoint on generator 3 does not match the value at bus 3
[info | PowerModels]: removing 1 cost terms from generator 4: [4000.0, 0.0]
[info | PowerModels]: removing 1 cost terms from generator 1: [1400.0, 0.0]
[info | PowerModels]: removing 1 cost terms from generator 5: [1000.0, 0.0]
[info | PowerModels]: removing 1 cost terms from generator 2: [1500.0, 0.0]
[info | PowerModels]: removing 1 cost terms from generator 3: [3000.0, 0.0]

******************************************************************************
This program contains Ipopt, a library for large-scale nonlinear optimization.
 Ipopt is released as open source code under the Eclipse Public License (EPL).
         For more information visit http://projects.coin-or.org/Ipopt
******************************************************************************

This is Ipopt version 3.13.2, running with linear solver mumps.
NOTE: Other linear solvers might be more efficient (see Ipopt documentation).

Number of nonzeros in equality constraint Jacobian...:      200
Number of nonzeros in inequality constraint Jacobian.:      390
Number of nonzeros in Lagrangian Hessian.............:       57

Total number of variables............................:       95
                     variables with only lower bounds:        0
                variables with lower and upper bounds:       90
                     variables with only upper bounds:        0
Total number of equality constraints.................:       51
Total number of inequality constraints...............:      150
        inequality constraints with only lower bounds:       71
   inequality constraints with lower and upper bounds:        0
        inequality constraints with only upper bounds:       79

iter    objective    inf_pr   inf_du lg(mu)  ||d||  lg(rg) alpha_du alpha_pr  ls
   0  1.0059989e+02 4.83e+01 2.89e+01  -1.0 0.00e+00    -  0.00e+00 0.00e+00   0
   1  3.2118699e+03 4.13e+01 4.79e+01  -1.0 2.54e+00    -  4.11e-03 1.45e-01h  1
   2  3.1300663e+03 4.05e+01 4.70e+01  -1.0 8.94e+00    -  1.79e-02 1.93e-02f  1
   3  3.0747970e+03 3.98e+01 4.61e+01  -1.0 7.66e+00    -  1.91e-02 1.85e-02f  1
   4  3.7624133e+03 3.51e+01 4.06e+01  -1.0 6.12e+00    -  4.70e-02 1.19e-01H  1
   5  4.2231996e+03 3.18e+01 3.68e+01  -1.0 6.92e+00    -  9.22e-02 9.30e-02h  1
   6  6.5416031e+03 2.26e+01 2.62e+01  -1.0 6.08e+00    -  2.81e-01 2.88e-01H  1
   7  8.4371204e+03 1.31e+01 1.73e+01  -1.0 1.01e+01    -  1.04e-01 4.23e-01H  1
   8  9.1891791e+03 9.53e+00 1.14e+01  -1.0 1.71e+01    -  7.38e-01 2.70e-01h  1
   9  9.2886401e+03 9.35e+00 1.11e+01  -1.0 4.49e+00    -  1.78e-02 1.94e-02h  1
iter    objective    inf_pr   inf_du lg(mu)  ||d||  lg(rg) alpha_du alpha_pr  ls
  10  1.5122351e+04 1.11e-02 1.55e+01  -1.0 1.95e+00    -  5.74e-01 1.00e+00h  1
  11  1.5104091e+04 5.54e-12 1.11e+01  -1.0 8.71e-01    -  5.86e-01 6.95e-01h  1
  12  1.5117921e+04 2.78e-12 1.30e+01  -1.0 9.70e-01    -  4.95e-01 1.00e+00f  1
  13  1.5121207e+04 3.11e-12 1.65e+00  -1.0 7.88e-01    -  8.69e-01 1.00e+00h  1
  14  1.5124592e+04 1.07e-11 3.54e-02  -1.0 1.01e+00    -  1.00e+00 1.00e+00h  1
  15  1.5082241e+04 4.79e-03 1.18e+01  -2.5 2.22e+00    -  8.14e-01 9.12e-01f  1
  16  1.5069343e+04 3.70e-02 3.27e+00  -2.5 1.78e+00    -  8.59e-01 1.00e+00h  1
  17  1.5059108e+04 2.95e-02 5.79e-02  -2.5 9.51e-01    -  1.00e+00 1.00e+00h  1
  18  1.5059167e+04 8.65e-12 1.30e-03  -2.5 8.28e-02    -  1.00e+00 1.00e+00h  1
  19  1.5053006e+04 1.10e-02 1.07e-01  -3.8 5.86e-01    -  8.88e-01 9.24e-01f  1
iter    objective    inf_pr   inf_du lg(mu)  ||d||  lg(rg) alpha_du alpha_pr  ls
  20  1.5051733e+04 2.84e-03 2.40e-01  -3.8 1.26e-01    -  9.85e-01 7.61e-01h  1
  21  1.5051679e+04 3.71e-12 1.30e-03  -3.8 8.11e-02    -  1.00e+00 1.00e+00h  1
  22  1.5051698e+04 1.99e-12 1.81e-05  -3.8 5.95e-03    -  1.00e+00 1.00e+00h  1
  23  1.5051529e+04 4.82e-12 1.32e+00  -5.7 7.10e-02    -  9.57e-01 5.46e-01h  1
  24  1.5051462e+04 2.07e-03 2.90e-01  -5.7 7.98e-02    -  7.47e-01 7.60e-01h  1
  25  1.5051448e+04 1.34e-03 5.11e-02  -5.7 4.45e-02    -  9.57e-01 1.00e+00h  1
  26  1.5051449e+04 1.64e-04 9.20e-06  -5.7 1.68e-02    -  1.00e+00 1.00e+00h  1
  27  1.5051449e+04 2.49e-12 6.78e-07  -5.7 4.45e-03    -  1.00e+00 1.00e+00h  1
  28  1.5051447e+04 7.80e-05 3.96e-02  -8.6 1.12e-02    -  7.88e-01 9.37e-01h  1
  29  1.5051447e+04 1.75e-05 1.46e-01  -8.6 4.84e-03    -  9.82e-01 1.00e+00h  1
iter    objective    inf_pr   inf_du lg(mu)  ||d||  lg(rg) alpha_du alpha_pr  ls
  30  1.5051447e+04 1.91e-06 2.90e-02  -8.6 1.63e-03    -  8.83e-01 1.00e+00h  1
  31  1.5051447e+04 7.26e-12 1.83e-09  -8.6 3.12e-04    -  1.00e+00 1.00e+00h  1

Number of Iterations....: 31

                                   (scaled)                 (unscaled)
Objective...............:   3.7628616848427527e+02    1.5051446739371009e+04
Dual infeasibility......:   1.8261521518677951e-09    7.3046086074711799e-08
Constraint violation....:   5.1366499407489558e-14    7.2555590008294154e-12
Complementarity.........:   6.7390026007744652e-09    2.6956010403097858e-07
Overall NLP error.......:   6.7390026007744652e-09    2.6956010403097858e-07


Number of objective function evaluations             = 35
Number of objective gradient evaluations             = 32
Number of equality constraint evaluations            = 35
Number of inequality constraint evaluations          = 35
Number of equality constraint Jacobian evaluations   = 32
Number of inequality constraint Jacobian evaluations = 32
Number of Lagrangian Hessian evaluations             = 31
Total CPU secs in IPOPT (w/o function evaluations)   =      0.322
Total CPU secs in NLP function evaluations           =      0.211

EXIT: Optimal Solution Found.
Time to Solution........:1.325584888458252
